# interactions involving Drude particles
pair_coeff    *  17* coul/long/cs
# Thole dipole-dipole damping if more than 1 Drude per molecule
pair_coeff    1    1 thole   1.208
pair_coeff    1    2 thole   1.549
pair_coeff    1    4 thole   1.417
pair_coeff    1    5 thole   1.417
pair_coeff    1    7 thole   1.331
pair_coeff    1    9 thole   1.683
pair_coeff    1   11 thole   1.272
pair_coeff    1   13 thole   1.549
pair_coeff    1   15 thole   1.315
pair_coeff    1   16 thole   1.176
pair_coeff    1   17 thole   1.208
pair_coeff    1   18 thole   1.549
pair_coeff    1   19 thole   1.417
pair_coeff    1   20 thole   1.417
pair_coeff    1   21 thole   1.331
pair_coeff    1   22 thole   1.683
pair_coeff    1   23 thole   1.272
pair_coeff    1   24 thole   1.549
pair_coeff    1   25 thole   1.315
pair_coeff    1   26 thole   1.176
pair_coeff    2    2 thole   1.985
pair_coeff    2    4 thole   1.816
pair_coeff    2    5 thole   1.816
pair_coeff    2    7 thole   1.706
pair_coeff    2    9 thole   2.157
pair_coeff    2   11 thole   1.630
pair_coeff    2   13 thole   1.985
pair_coeff    2   15 thole   1.686
pair_coeff    2   16 thole   1.507
pair_coeff    2   17 thole   1.549
pair_coeff    2   18 thole   1.985
pair_coeff    2   19 thole   1.816
pair_coeff    2   20 thole   1.816
pair_coeff    2   21 thole   1.706
pair_coeff    2   22 thole   2.157
pair_coeff    2   23 thole   1.630
pair_coeff    2   24 thole   1.985
pair_coeff    2   25 thole   1.686
pair_coeff    2   26 thole   1.507
pair_coeff    4    4 thole   1.662
pair_coeff    4    5 thole   1.662
pair_coeff    4    7 thole   1.561
pair_coeff    4    9 thole   1.974
pair_coeff    4   11 thole   1.492
pair_coeff    4   13 thole   1.816
pair_coeff    4   15 thole   1.543
pair_coeff    4   16 thole   1.379
pair_coeff    4   17 thole   1.417
pair_coeff    4   18 thole   1.816
pair_coeff    4   19 thole   1.662
pair_coeff    4   20 thole   1.662
pair_coeff    4   21 thole   1.561
pair_coeff    4   22 thole   1.974
pair_coeff    4   23 thole   1.492
pair_coeff    4   24 thole   1.816
pair_coeff    4   25 thole   1.543
pair_coeff    4   26 thole   1.379
pair_coeff    5    5 thole   1.662
pair_coeff    5    7 thole   1.561
pair_coeff    5    9 thole   1.974
pair_coeff    5   11 thole   1.492
pair_coeff    5   13 thole   1.816
pair_coeff    5   15 thole   1.543
pair_coeff    5   16 thole   1.379
pair_coeff    5   17 thole   1.417
pair_coeff    5   18 thole   1.816
pair_coeff    5   19 thole   1.662
pair_coeff    5   20 thole   1.662
pair_coeff    5   21 thole   1.561
pair_coeff    5   22 thole   1.974
pair_coeff    5   23 thole   1.492
pair_coeff    5   24 thole   1.816
pair_coeff    5   25 thole   1.543
pair_coeff    5   26 thole   1.379
pair_coeff    7    7 thole   1.467
pair_coeff    7    9 thole   1.854
pair_coeff    7   11 thole   1.402
pair_coeff    7   13 thole   1.706
pair_coeff    7   15 thole   1.449
pair_coeff    7   16 thole   1.295
pair_coeff    7   17 thole   1.331
pair_coeff    7   18 thole   1.706
pair_coeff    7   19 thole   1.561
pair_coeff    7   20 thole   1.561
pair_coeff    7   21 thole   1.467
pair_coeff    7   22 thole   1.854
pair_coeff    7   23 thole   1.402
pair_coeff    7   24 thole   1.706
pair_coeff    7   25 thole   1.449
pair_coeff    7   26 thole   1.295
pair_coeff    9    9 thole   2.344
pair_coeff    9   11 thole   1.772
pair_coeff    9   13 thole   2.157
pair_coeff    9   15 thole   1.832
pair_coeff    9   16 thole   1.638
pair_coeff    9   17 thole   1.683
pair_coeff    9   18 thole   2.157
pair_coeff    9   19 thole   1.974
pair_coeff    9   20 thole   1.974
pair_coeff    9   21 thole   1.854
pair_coeff    9   22 thole   2.344
pair_coeff    9   23 thole   1.772
pair_coeff    9   24 thole   2.157
pair_coeff    9   25 thole   1.832
pair_coeff    9   26 thole   1.638
pair_coeff   11   11 thole   1.339
pair_coeff   11   13 thole   1.630
pair_coeff   11   15 thole   1.385
pair_coeff   11   16 thole   1.238
pair_coeff   11   17 thole   1.272
pair_coeff   11   18 thole   1.630
pair_coeff   11   19 thole   1.492
pair_coeff   11   20 thole   1.492
pair_coeff   11   21 thole   1.402
pair_coeff   11   22 thole   1.772
pair_coeff   11   23 thole   1.339
pair_coeff   11   24 thole   1.630
pair_coeff   11   25 thole   1.385
pair_coeff   11   26 thole   1.238
pair_coeff   13   13 thole   1.985
pair_coeff   13   15 thole   1.686
pair_coeff   13   16 thole   1.507
pair_coeff   13   17 thole   1.549
pair_coeff   13   18 thole   1.985
pair_coeff   13   19 thole   1.816
pair_coeff   13   20 thole   1.816
pair_coeff   13   21 thole   1.706
pair_coeff   13   22 thole   2.157
pair_coeff   13   23 thole   1.630
pair_coeff   13   24 thole   1.985
pair_coeff   13   25 thole   1.686
pair_coeff   13   26 thole   1.507
pair_coeff   15   15 thole   1.432
pair_coeff   15   16 thole   1.280
pair_coeff   15   17 thole   1.315
pair_coeff   15   18 thole   1.686
pair_coeff   15   19 thole   1.543
pair_coeff   15   20 thole   1.543
pair_coeff   15   21 thole   1.449
pair_coeff   15   22 thole   1.832
pair_coeff   15   23 thole   1.385
pair_coeff   15   24 thole   1.686
pair_coeff   15   25 thole   1.432
pair_coeff   15   26 thole   1.280
pair_coeff   16   16 thole   1.144
pair_coeff   16   17 thole   1.176
pair_coeff   16   18 thole   1.507
pair_coeff   16   19 thole   1.379
pair_coeff   16   20 thole   1.379
pair_coeff   16   21 thole   1.295
pair_coeff   16   22 thole   1.638
pair_coeff   16   23 thole   1.238
pair_coeff   16   24 thole   1.507
pair_coeff   16   25 thole   1.280
pair_coeff   16   26 thole   1.144
pair_coeff   17   17 thole   1.208
pair_coeff   17   18 thole   1.549
pair_coeff   17   19 thole   1.417
pair_coeff   17   20 thole   1.417
pair_coeff   17   21 thole   1.331
pair_coeff   17   22 thole   1.683
pair_coeff   17   23 thole   1.272
pair_coeff   17   24 thole   1.549
pair_coeff   17   25 thole   1.315
pair_coeff   17   26 thole   1.176
pair_coeff   18   18 thole   1.985
pair_coeff   18   19 thole   1.816
pair_coeff   18   20 thole   1.816
pair_coeff   18   21 thole   1.706
pair_coeff   18   22 thole   2.157
pair_coeff   18   23 thole   1.630
pair_coeff   18   24 thole   1.985
pair_coeff   18   25 thole   1.686
pair_coeff   18   26 thole   1.507
pair_coeff   19   19 thole   1.662
pair_coeff   19   20 thole   1.662
pair_coeff   19   21 thole   1.561
pair_coeff   19   22 thole   1.974
pair_coeff   19   23 thole   1.492
pair_coeff   19   24 thole   1.816
pair_coeff   19   25 thole   1.543
pair_coeff   19   26 thole   1.379
pair_coeff   20   20 thole   1.662
pair_coeff   20   21 thole   1.561
pair_coeff   20   22 thole   1.974
pair_coeff   20   23 thole   1.492
pair_coeff   20   24 thole   1.816
pair_coeff   20   25 thole   1.543
pair_coeff   20   26 thole   1.379
pair_coeff   21   21 thole   1.467
pair_coeff   21   22 thole   1.854
pair_coeff   21   23 thole   1.402
pair_coeff   21   24 thole   1.706
pair_coeff   21   25 thole   1.449
pair_coeff   21   26 thole   1.295
pair_coeff   22   22 thole   2.344
pair_coeff   22   23 thole   1.772
pair_coeff   22   24 thole   2.157
pair_coeff   22   25 thole   1.832
pair_coeff   22   26 thole   1.638
pair_coeff   23   23 thole   1.339
pair_coeff   23   24 thole   1.630
pair_coeff   23   25 thole   1.385
pair_coeff   23   26 thole   1.238
pair_coeff   24   24 thole   1.985
pair_coeff   24   25 thole   1.686
pair_coeff   24   26 thole   1.507
pair_coeff   25   25 thole   1.432
pair_coeff   25   26 thole   1.280
pair_coeff   26   26 thole   1.144
